Translating instance to solver...

Set parameter TimeLimit to value 28800
Gurobi Optimizer version 11.0.2 build v11.0.2rc0 (linux64 - "Ubuntu 22.04.4 LTS")

CPU model: Intel(R) Xeon(R) Gold 5120 CPU @ 2.20GHz, instruction set [SSE2|AVX|AVX2|AVX512]
Thread count: 28 physical cores, 56 logical processors, using up to 28 threads

Academic license 2463511 - for non-commercial use only - registered to lu___@cefet-rj.br
Optimize a model with 85165 rows, 41523 columns and 194718 nonzeros
Model fingerprint: 0x66abbd0d
Variable types: 1 continuous, 41522 integer (41460 binary)
Coefficient statistics:
  Matrix range     [1e+00, 1e+05]
  Objective range  [3e-01, 8e-01]
  Bounds range     [1e+00, 6e+01]
  RHS range        [1e+00, 8e+01]
Presolve removed 69243 rows and 34979 columns
Presolve time: 1.36s
Presolved: 15922 rows, 6544 columns, 46489 nonzeros
Variable types: 0 continuous, 6544 integer (6483 binary)

Root relaxation: objective 1.671959e+00, 2443 iterations, 0.14 seconds (0.16 work units)

    Nodes    |    Current Node    |     Objective Bounds      |     Work
 Expl Unexpl |  Obj  Depth IntInf | Incumbent    BestBd   Gap | It/Node Time

     0     0    1.67196    0  131          -    1.67196      -     -    2s
     0     0    1.70072    0  177          -    1.70072      -     -    2s
     0     0    1.81767    0   98          -    1.81767      -     -    3s
H    0     0                       8.7824740    1.81767  79.3%     -    3s
     0     0    1.81767    0  115    8.78247    1.81767  79.3%     -    3s
H    0     0                       6.9648010    1.81767  73.9%     -    3s
     0     0    1.81767    0   80    6.96480    1.81767  73.9%     -    3s
H    0     0                       3.9412370    1.81767  53.9%     -    3s
     0     0    1.81767    0  219    3.94124    1.81767  53.9%     -    3s
H    0     0                       2.5735640    1.81767  29.4%     -    4s
     0     0    1.81767    0  143    2.57356    1.81767  29.4%     -    4s
H    0     0                       2.1235640    1.81767  14.4%     -    4s
     0     0    1.81767    0   16    2.12356    1.81767  14.4%     -    4s
     0     0    1.81767    0   17    2.12356    1.81767  14.4%     -    4s
     0     0    1.81767    0   22    2.12356    1.81767  14.4%     -    5s
     0     0    1.81767    0  131    2.12356    1.81767  14.4%     -    6s
     0     0    1.81767    0  152    2.12356    1.81767  14.4%     -    7s
     0     0    1.81767    0  152    2.12356    1.81767  14.4%     -    7s
     0     0    1.81767    0  139    2.12356    1.81767  14.4%     -    8s
     0     0    1.81767    0  139    2.12356    1.81767  14.4%     -    8s
     0     0    1.81767    0  119    2.12356    1.81767  14.4%     -    9s
     0     0    1.81767    0  167    2.12356    1.81767  14.4%     -   10s
     0     0    1.81767    0  134    2.12356    1.81767  14.4%     -   10s
     0     0    1.81767    0  150    2.12356    1.81767  14.4%     -   11s
     0     0    1.81767    0  142    2.12356    1.81767  14.4%     -   11s
     0     0    1.81767    0   24    2.12356    1.81767  14.4%     -   12s
     0     0    1.81767    0  212    2.12356    1.81767  14.4%     -   12s
     0     0    1.81767    0   22    2.12356    1.81767  14.4%     -   13s
     0     0    1.81767    0  108    2.12356    1.81767  14.4%     -   13s
     0     0    1.81767    0   39    2.12356    1.81767  14.4%     -   14s
     0     0    1.81767    0   39    2.12356    1.81767  14.4%     -   14s
     0     2    1.81767    0   28    2.12356    1.81767  14.4%     -   14s
     2     5    1.81806    1  141    2.12356    1.81767  14.4%   956   15s
    74    48    1.81767    7  113    2.12356    1.81767  14.4%   491   25s
   458    93    1.83320   13  215    2.12356    1.81767  14.4%   273   30s
   912   159    1.97921   25   76    2.12356    1.81767  14.4%   209   38s
  1148   203    2.00160   34   92    2.12356    1.81767  14.4%   200   40s
  2413   463    1.99915   15  285    2.12356    1.81767  14.4%   177   45s
  2895   539    1.90205   23   75    2.12356    1.81767  14.4%   168   52s
  2955   587    1.90356   24   79    2.12356    1.81767  14.4%   169   55s
  3407   668    1.95869   17   75    2.12356    1.81767  14.4%   165   68s
  3785   835    1.81767   21  155    2.12356    1.81767  14.4%   165   70s
  6657  1012    1.98940   27   87    2.12356    1.89187  10.9%   145   75s

Cutting planes:
  Learned: 355
  Gomory: 2
  Implied bound: 558
  Clique: 2
  MIR: 182
  StrongCG: 4
  Zero half: 5
  RLT: 94
  Relax-and-lift: 148
  BQP: 22

Explored 9297 nodes (1320454 simplex iterations) in 77.80 seconds (78.07 work units)
Thread count was 28 (of 56 available processors)

Solution count 5: 2.12356 2.57356 3.94124 ... 8.78247

Optimal solution found (tolerance 1.00e-04)
Best objective 2.123564000000e+00, best bound 2.123564000000e+00, gap 0.0000%

Solver Wallclock Time (for this epsilon): 77.80626797676086 s
Python wallclock Time (for this epsilon): 84.56331872940063 s


Total Elapsed Time (since program call): 601.8145678043365 s

Results:

I = 2.123564 mA
C = 80.0 points
C ~= 32.0 km^2

Minimum Epsilon for this instance = 10
Maximum Epsilon for this instance = 100

Current Epsilon = 80


Preprocessing Time (for this epsilon): 0.010261297225952148 s


Updated solution vectors:
sol_I = [-0.9176730000000001,-1.223564,-1.367673,-1.367673,-1.367673,-1.6735639999999998,-1.817673,-2.123564]
sol_C = [15.0,20.0,49.0,47.0,56.0,61.0,70.0,80.0]
sol_eps = [10,20,30,40,50,60,70,80]
sol_gap = [0.0,0.0,0.0,3.0375000092952575e-07,1.912499996148398e-07,0.0,0.0,0.0]
